     Program PWSCF v.5.1.1 starts on 31Jan2015 at 13:41:22

     Current dimensions of program PWSCF are:
     Max number of different atomic species (ntypx) = 10
     Max number of k-points (npk) =  40000
     Max angular momentum in pseudopotentials (lmaxx) =  3

     IMPORTANT: XC functional enforced from input :
     Exchange-correlation      = VDW-DF ( 1  4  4  0 1 0)
     Any further DFT definition will be discarded
     Please, verify this is what you really want

               file C.pbe-rrkjus.UPF: wavefunction(s)  2S 2P renormalized

     Subspace diagonalization in iterative solution of the eigenvalue problem:
     a serial algorithm will be used

     bravais-lattice index     =            4
     lattice parameter (alat)  =       4.6412  a.u.
     unit-cell volume          =     236.0493 (a.u.)^3
     number of atoms/cell      =            4
     number of atomic types    =            1
     number of electrons       =        16.00
     number of Kohn-Sham states=            8
     kinetic-energy cutoff     =      30.0000  Ry
     charge density cutoff     =     180.0000  Ry
     convergence threshold     =      1.0E-08
     mixing beta               =       0.7000
     number of iterations used =            8  plain     mixing
     Exchange-correlation      = VDW-DF ( 1  4  4  0 1 0)
     nstep                     =           50

     celldm(1)=   4.641170  celldm(2)=   0.000000  celldm(3)=   2.726400
     celldm(4)=   0.000000  celldm(5)=   0.000000  celldm(6)=   0.000000

     crystal axes: (cart. coord. in units of alat)
               a(1) = (   1.000000   0.000000   0.000000 )
               a(2) = (  -0.500000   0.866025   0.000000 )
               a(3) = (   0.000000   0.000000   2.726400 )

     reciprocal axes: (cart. coord. in units 2 pi/alat)
               b(1) = (  1.000000  0.577350 -0.000000 )
               b(2) = (  0.000000  1.154701  0.000000 )
               b(3) = (  0.000000 -0.000000  0.366784 )

     PseudoPot. # 1 for C  read from file:
     /Users/andrew/Dropbox/src/espresso/pseudo/C.pbe-rrkjus.UPF
     MD5 check sum: 00fb224312de0c5b6853bd333518df6f
     Pseudo is Ultrasoft, Zval =  4.0
     Generated by new atomic code, or converted to UPF format
     Using radial grid of  627 points,  4 beta functions with:
                l(1) =   0
                l(2) =   0
                l(3) =   1
                l(4) =   1
     Q(r) pseudized with 0 coefficients

     vdW kernel table read from file vdW_kernel_table
     MD5 check sum: e19faeb5f43f5facbbdb943dfd0e264a

     atomic species   valence    mass     pseudopotential
        C              4.00    12.00000     C ( 1.00)

     24 Sym. Ops., with inversion, found (12 have fractional translation)

   Cartesian axes

     site n.     atom                  positions (alat units)
         1           C   tau(   1) = (   0.0000000   0.0000000   0.0000000  )
         2           C   tau(   2) = (   0.0000000   0.5773503   0.0000000  )
         3           C   tau(   3) = (   0.0000000   0.0000000   1.3632000  )
         4           C   tau(   4) = (   0.5000000   0.2886751   1.3632000  )

     number of k points=    12
                       cart. coord. in units 2pi/alat
        k(    1) = (   0.1250000   0.2165064   0.0458480), wk =   0.1250000
        k(    2) = (   0.1250000   0.2165064   0.1375440), wk =   0.1250000
        k(    3) = (   0.1250000   0.5051815   0.0458480), wk =   0.2500000
        k(    4) = (   0.1250000   0.5051815   0.1375440), wk =   0.2500000
        k(    5) = (   0.1250000  -0.3608439   0.0458480), wk =   0.2500000
        k(    6) = (   0.1250000  -0.3608439   0.1375440), wk =   0.2500000
        k(    7) = (   0.1250000  -0.0721688   0.0458480), wk =   0.1250000
        k(    8) = (   0.1250000  -0.0721688   0.1375440), wk =   0.1250000
        k(    9) = (   0.3750000   0.6495191   0.0458480), wk =   0.1250000
        k(   10) = (   0.3750000   0.6495191   0.1375440), wk =   0.1250000
        k(   11) = (   0.3750000  -0.2165064   0.0458480), wk =   0.1250000
        k(   12) = (   0.3750000  -0.2165064   0.1375440), wk =   0.1250000

     Largest allocated arrays     est. size (Mb)     dimensions
     Largest temporary arrays     est. size (Mb)     dimensions

     Initial potential from superposition of free atoms

     starting charge   15.99979, renormalised to   16.00000

     *
     * You are using vdW-DF for exchange-correlation in this calculation.
     * Please cite the following three references that made this development
     * possible:
     *
     *   M. Dion, H. Rydberg, E. Schroder, D. C. Langreth, and
     *   B. I. Lundqvist, Phys. Rev. Lett. 92, 246401 (2004).
     *
     *   T. Thonhauser, V. R. Cooper, S. Li, A. Puzder, P. Hyldgaard, and
     *   D. C. Langreth, Phys. Rev. B 76, 125112 (2007).
     *
     *   G. Roman-Perez and J. M. Soler, Phys. Rev. Lett. 103, 096102 (2009).
     *
     *
     * If you are using vdW-DF2, please also cite:
     *
     *   K. Lee, E. D. Murray, L. Kong, B. I. Lundqvist, and
     *   D. C. Langreth, Phys. Rev. B 82, 081101(R) (2010).
     *
     *
     * If you are calculating the stress with vdW-DF, please also cite:
     *
     *   R. Sabatini, E. Kucukbenli, B. Kolb, T. Thonhauser, and
     *   S. de Gironcoli, J. Phys.: Condens. Matter 24, 424209 (2012).
     *

     Carrying out vdW-DF run using the following parameters:

     Nqs =      20    Nr_points =    1024   r_max =   100.000
     q_mesh =
               0.00001000     0.04494208     0.09755937     0.15916263
               0.23128650     0.31572767     0.41458969     0.53033537
               0.66584808     0.82450364     1.01025438     1.22772762
               1.48234092     1.78043706     2.12944203     2.53805004
               3.01644009     3.57652955     4.23227104     5.00000000

     Gradients computed in reciprocal space

     Starting wfc are   16 randomized atomic wfcs

     Self-consistent Calculation

     iteration #  1     ecut=    30.00 Ry     beta=0.70
     Davidson diagonalization with overlap
     ethr =  1.00E-02,  avg # of iterations =  2.0

     total energy              =     -45.81465162 Ry
     Harris-Foulkes estimate   =     -46.06085442 Ry
     estimated scf accuracy    <       0.43947991 Ry

[...]

     End of self-consistent calculation

          k = 0.1250 0.2165 0.0458 (   646 PWs)   bands (ev):

   -11.5264 -11.2691  -0.0598   0.6944   0.7337   1.6562   1.7747   1.8021

[...]

     highest occupied level (ev):     6.2663

!    total energy              =     -45.88107690 Ry
     Harris-Foulkes estimate   =     -45.88107690 Ry
     estimated scf accuracy    <          6.0E-09 Ry

     The total energy is the sum of the following terms:

     one-electron contribution =     -11.17962709 Ry
     hartree contribution      =      13.63781211 Ry
     xc contribution           =     -14.43012796 Ry
     ewald contribution        =     -33.90913395 Ry

     convergence has been achieved in   7 iterations

     Forces acting on atoms (Ry/au):

     atom    1 type  1   force =     0.00000000    0.00000000    0.00000000
     atom    2 type  1   force =    -0.00000000    0.00000000    0.00000000
     atom    3 type  1   force =     0.00000000   -0.00000000    0.00000000
     atom    4 type  1   force =     0.00000000   -0.00000000    0.00000000

     Total force =     0.000000     Total SCF correction =     0.000000

     entering subroutine stress ...

          total   stress  (Ry/bohr**3)                   (kbar)     P=   34.79
   0.00028288   0.00000000   0.00000000         41.61      0.00      0.00
   0.00000000   0.00028288   0.00000000          0.00     41.61      0.00
   0.00000000   0.00000000   0.00014381          0.00      0.00     21.16

     BFGS Geometry Optimization

     number of scf cycles    =   1
     number of bfgs steps    =   0

     enthalpy new            =     -45.8810768977 Ry

     new trust radius        =       0.0110474258 bohr
     new conv_thr            =       0.0000000100 Ry

     new unit-cell volume =    236.89791 a.u.^3 (    35.10465 Ang^3 )

CELL_PARAMETERS (alat=  4.64117000)
   1.000000000   0.000000000   0.000000000
  -0.500000000   0.866025404   0.000000000
   0.000000000   0.000000000   2.736202105

ATOMIC_POSITIONS (alat)
C        0.000000000   0.000000000   0.000000000
C        0.000000000   0.577350269   0.000000000
C        0.000000000  -0.000000000   1.368101053
C        0.500000000   0.288675135   1.368101053

     Writing output data file graphite.save
     NEW-OLD atomic charge density approx. for the potential
     extrapolated charge   16.05732, renormalised to   16.00000

[...]

     enthalpy old            =     -45.8810768977 Ry
     enthalpy new            =     -45.8811941534 Ry

     CASE: enthalpy_new < enthalpy_old

     WARNING: bfgs curvature condition failed, Theta= 0.866
     new trust radius        =       0.0165414301 bohr
     new conv_thr            =            1.0E-10 Ry

[...]

     number of scf cycles    =   6
     number of bfgs steps    =   5

     enthalpy old            =     -45.8817309832 Ry
     enthalpy new            =     -45.8818239184 Ry

     CASE: enthalpy_new < enthalpy_old

     new trust radius        =       0.0036522278 bohr
     new conv_thr            =            1.0E-10 Ry

     new unit-cell volume =    246.87122 a.u.^3 (    36.58254 Ang^3 )

[...]

ATOMIC_POSITIONS (alat)
C        0.000000000   0.000000000  -0.000000000
C        0.000000000   0.577350269   0.000000000
C        0.000000000  -0.000000000   1.425697579
C        0.500000000   0.288675135   1.425697579

     Writing output data file graphite.save
     NEW-OLD atomic charge density approx. for the potential
     extrapolated charge   16.01858, renormalised to   16.00000

[...]

     Threshold (ethr) on eigenvalues was too large:
     Diagonalizing with lowered threshold

     Davidson diagonalization with overlap
     ethr =  4.05E-08,  avg # of iterations =  1.0

[...]

     bfgs converged in   7 scf cycles and   6 bfgs steps
     (criteria: energy <  1.0E-04, force <  1.0E-03, cell <  5.0E-01)

     End of BFGS Geometry Optimization

     Final enthalpy =     -45.8818244326 Ry
Begin final coordinates
     new unit-cell volume =    246.87122 a.u.^3 (    36.58254 Ang^3 )

CELL_PARAMETERS (alat=  4.64117000)
   1.000000000   0.000000000   0.000000000
  -0.500000000   0.866025404   0.000000000
   0.000000000   0.000000000   2.851395159

ATOMIC_POSITIONS (alat)
C        0.000000000   0.000000000  -0.000000000
C        0.000000000   0.577350269   0.000000000
C        0.000000000  -0.000000000   1.425697579
C        0.500000000   0.288675135   1.425697579
End final coordinates

     A final scf calculation at the relaxed structure.
     The G-vectors are recalculated for the final unit cell
     Results may differ from those at the preceding step.

     bravais-lattice index     =            4
     lattice parameter (alat)  =       4.6412  a.u.
     unit-cell volume          =     246.8712 (a.u.)^3
     number of atoms/cell      =            4
     number of atomic types    =            1
     number of electrons       =        16.00
     number of Kohn-Sham states=            8
     kinetic-energy cutoff     =      30.0000  Ry
     charge density cutoff     =     180.0000  Ry
     convergence threshold     =      1.0E-10
     mixing beta               =       0.7000
     number of iterations used =            8  plain     mixing
     Exchange-correlation      = VDW-DF ( 1  4  4  0 1 0)

     celldm(1)=   4.641170  celldm(2)=   0.000000  celldm(3)=   2.726400
     celldm(4)=   0.000000  celldm(5)=   0.000000  celldm(6)=   0.000000

     crystal axes: (cart. coord. in units of alat)
               a(1) = (   1.000000   0.000000   0.000000 )
               a(2) = (  -0.500000   0.866025   0.000000 )
               a(3) = (   0.000000   0.000000   2.851395 )

     reciprocal axes: (cart. coord. in units 2 pi/alat)
               b(1) = (  1.000000  0.577350 -0.000000 )
               b(2) = (  0.000000  1.154701  0.000000 )
               b(3) = (  0.000000 -0.000000  0.350706 )

     PseudoPot. # 1 for C  read from file:
     /Users/andrew/Dropbox/src/espresso/pseudo/C.pbe-rrkjus.UPF
     MD5 check sum: 00fb224312de0c5b6853bd333518df6f
     Pseudo is Ultrasoft, Zval =  4.0
     Generated by new atomic code, or converted to UPF format
     Using radial grid of  627 points,  4 beta functions with:
                l(1) =   0
                l(2) =   0
                l(3) =   1
                l(4) =   1
     Q(r) pseudized with 0 coefficients

     vdW kernel table read from file vdW_kernel_table
     MD5 check sum: e19faeb5f43f5facbbdb943dfd0e264a

     atomic species   valence    mass     pseudopotential
        C              4.00    12.00000     C ( 1.00)

     24 Sym. Ops., with inversion, found (12 have fractional translation)

   Cartesian axes

     site n.     atom                  positions (alat units)
         1           C   tau(   1) = (   0.0000000   0.0000000  -0.0000000  )
         2           C   tau(   2) = (   0.0000000   0.5773503   0.0000000  )
         3           C   tau(   3) = (   0.0000000  -0.0000000   1.4256976  )
         4           C   tau(   4) = (   0.5000000   0.2886751   1.4256976  )

     number of k points=    12
                       cart. coord. in units 2pi/alat
        k(    1) = (   0.1250000   0.2165064   0.0438382), wk =   0.1250000
        k(    2) = (   0.1250000   0.2165064   0.1315146), wk =   0.1250000
        k(    3) = (   0.1250000   0.5051815   0.0438382), wk =   0.2500000
        k(    4) = (   0.1250000   0.5051815   0.1315146), wk =   0.2500000
        k(    5) = (   0.1250000  -0.3608439   0.0438382), wk =   0.2500000
        k(    6) = (   0.1250000  -0.3608439   0.1315146), wk =   0.2500000
        k(    7) = (   0.1250000  -0.0721688   0.0438382), wk =   0.1250000
        k(    8) = (   0.1250000  -0.0721688   0.1315146), wk =   0.1250000
        k(    9) = (   0.3750000   0.6495191   0.0438382), wk =   0.1250000
        k(   10) = (   0.3750000   0.6495191   0.1315146), wk =   0.1250000
        k(   11) = (   0.3750000  -0.2165064   0.0438382), wk =   0.1250000
        k(   12) = (   0.3750000  -0.2165064   0.1315146), wk =   0.1250000

     Largest allocated arrays     est. size (Mb)     dimensions
     Largest temporary arrays     est. size (Mb)     dimensions

     Initial potential from superposition of free atoms

     starting charge   15.99979, renormalised to   16.00000
     Starting wfc are   16 randomized atomic wfcs

     Writing output data file graphite.save

     Self-consistent Calculation

[...]

     total energy              =     -45.88203819 Ry
     Harris-Foulkes estimate   =     -45.88203819 Ry
     estimated scf accuracy    <          1.9E-09 Ry

     iteration #  8     ecut=    30.00 Ry     beta=0.70
     Davidson diagonalization with overlap
     ethr =  1.19E-11,  avg # of iterations =  2.0

     End of self-consistent calculation

[...]

          k = 0.3750-0.2165 0.1315 (   685 PWs)   bands (ev):

    -9.7890  -9.7255  -4.2354  -4.1974   0.3565   0.3693   2.4102   2.8780

     highest occupied level (ev):     5.7375

!    total energy              =     -45.88203819 Ry
     Harris-Foulkes estimate   =     -45.88203819 Ry
     estimated scf accuracy    <          3.7E-11 Ry

     The total energy is the sum of the following terms:

     one-electron contribution =     -14.76728857 Ry
     hartree contribution      =      15.13156025 Ry
     xc contribution           =     -14.42215670 Ry
     ewald contribution        =     -31.82415318 Ry

     convergence has been achieved in   8 iterations

     Forces acting on atoms (Ry/au):

     atom    1 type  1   force =     0.00000000   -0.00000000    0.00000000
     atom    2 type  1   force =     0.00000000    0.00000000    0.00000000
     atom    3 type  1   force =     0.00000000    0.00000000    0.00000000
     atom    4 type  1   force =     0.00000000   -0.00000000    0.00000000

     Total force =     0.000000     Total SCF correction =     0.000000

     entering subroutine stress ...

          total   stress  (Ry/bohr**3)                   (kbar)     P=   28.80
   0.00028162   0.00000000  -0.00000000         41.43      0.00     -0.00
   0.00000000   0.00028162   0.00000000          0.00     41.43      0.00
  -0.00000000   0.00000000   0.00002403         -0.00      0.00      3.54

     Writing output data file graphite.save

     General routines

     Parallel routines

   This run was terminated on:  13:41:56  31Jan2015

   JOB DONE.