  Job Started  at 10:25.30 23rd February   2015

  Number of CPUs =     1

  Total number of configurations input =   2

*  Input for Configuration =   1 : chabazite                                   *

  Formula = Si12O24

  Number of irreducible atoms/shells =       5

  Total number atoms/shells =      36

  Dimensionality = 3               :  Bulk

  Symmetry :

  Crystal family                   :  Hexagonal
  Crystal class  (Groth - 1921)    :  Ditrigonal Scalenohedral

  Space group (centrosymmetric)    :  R -3 M

  Patterson group                  :  R -3 m

  Cartesian lattice vectors (Angstroms) :

        6.901286    3.984460    5.025094
       -6.901286    3.984460    5.025094
        0.000000   -7.968919    5.025094

  Cell parameters (Angstroms/Degrees):

  a =       9.4210    alpha =  94.2000
  b =       9.4210    beta  =  94.2000
  c =       9.4210    gamma =  94.2000

  Initial cell volume =         829.077085 Angs**3

  Temperature of configuration =  0.000     K

  Pressure of configuration =         0.000 GPa

  Fractional coordinates of asymmetric unit :

   No.  Atomic       x           y          z         Charge      Occupancy
        Label      (Frac)      (Frac)     (Frac)        (e)         (Frac)
      1 Si    c    0.102192 *  0.331083 *  0.876169 *   2.10000    1.000000
      2 O3    c    0.261344 *  0.738656    0.000000    -1.05000    1.000000
      3 O3    c    0.141729 *  0.858271    0.500000    -1.05000    1.000000
      4 O3    c    0.246729 *  0.246729    0.890290 *  -1.05000    1.000000
      5 O3    c    0.018968 *  0.018968    0.314454 *  -1.05000    1.000000

  Molecule list generated from bond lengths :

  Total number of molecules =     0

  Constraints :

  Constraint no.      Unconstrained     Constrained    Coefficient    Offset
                         Variable         Variable
           1              Strain 1        Strain 2       1.00000      0.0000
           2                 4 x             4 y         2.00000     -1.0000
           3                 5 x             5 y         2.00000     -1.0000

*  Input for Configuration =   2 : quartz                                      *

  Formula = Si3O6

  Number of irreducible atoms/shells =       2

  Total number atoms/shells =       9

  Dimensionality = 3               :  Bulk

  Symmetry :

  Crystal family                   :  Hexagonal
  Crystal class  (Groth - 1921)    :  Trigonal Trapezohedral

  Space group (noncentrosymmetric) :  P 31 2 1

  Patterson group                  :  P -3 m 1

  Cartesian lattice vectors (Angstroms) :

[...]

  Cell parameters (Angstroms/Degrees):

  a =       4.9147    alpha =  90.0000
  b =       4.9147    beta  =  90.0000
  c =       5.4066    gamma = 120.0000

  Initial cell volume =         113.097184 Angs**3

  Temperature of configuration =  0.000     K

  Pressure of configuration =         0.000 GPa

  Fractional coordinates of asymmetric unit :

   No.  Atomic       x           y          z         Charge      Occupancy
        Label      (Frac)      (Frac)     (Frac)        (e)         (Frac)
      1 Si    c    0.468200 *  0.000000    0.333333     2.10000    1.000000
      2 O3    c    0.413100 *  0.266100 *  0.213100 *  -1.05000    1.000000

  Molecule list generated from bond lengths :

  Total number of molecules =     0

  Constraints :

  Constraint no.      Unconstrained     Constrained    Coefficient    Offset
                         Variable         Variable
           1              Strain 1        Strain 2       1.00000      0.0000

*  General input information                                                   *

  Species output for all configurations :

  Species    Type    Atomic    Atomic    Charge       Radii (Angs)     Library
                     Number     Mass       (e)     Cova   Ionic  VDW   Symbol
    O3       Core        8      16.00  -1.050000   0.730  0.000  1.360
    Si       Core       14      28.09   2.100000   0.000  0.000  2.100

  Lattice summation method               =    Ewald          (3-D)
                                         =    Parry          (2-D)
                                         =    Saunders et al (1-D)
  Accuracy factor for lattice sums       =   12.000

  Time limit = Infinity

  Maximum range for interatomic potentials =         8.500000 Angstroms

  Taper potentials to zero over   0.5000 Angstroms using polynomial

  Intermolecular potentials :

Atom  Types   Potential         A         B         C         D     Cutoffs(Ang)
  1     2                                                            Min    Max
O3   c O3   c Lenn/es 12  6 0.674E-02  3.55      0.00      0.00     0.000  8.500
O3   c Si   c Lenn/es 12  6 0.232E-04  3.63      0.00      0.00     0.000  8.500
Si   c Si   c Lenn/es 12  6 0.798E-07  3.71      0.00      0.00     0.000  8.500

*  Output for configuration   1 : chabazite                                    *

  Components of energy :

  Interatomic potentials     =          26.81708376 eV
  Monopole - monopole (real) =        -354.89281458 eV
  Monopole - monopole (recip)=        -163.57982847 eV
  Monopole - monopole (total)=        -518.47264305 eV
  Total lattice energy :
    Primitive unit cell      =        -491.65555928 eV
    Non-primitive unit cell  =       -1474.96667785 eV
  Total lattice energy (in kJmol-1):
    Primitive unit cell      =          -47437.2458 kJ/(mole unit cells)
    Non-primitive unit cell  =         -142311.7375 kJ/(mole unit cells)

  Number of variables =       11

  Maximum number of calculations  =          1000
  Maximum Hessian update interval =            10
  Maximum step size               =   1.000000000
  Maximum parameter tolerance     =   0.000010000
  Maximum function  tolerance     =   0.000010000
  Maximum gradient  tolerance     =   0.001000000
  Maximum gradient  component     =   0.010000000

  Symmetry constrained optimisation

  Symmetry used for second derivatives

  Cell parameters to be optimised using strains

  Newton-Raphson optimiser to be used

  BFGS hessian update to be used

  Start of bulk optimisation :

  ** Hessian calculated **

  **** Optimisation achieved ****

  Final energy =    -495.34674175 eV
  Final Gnorm  =       0.00020003

[...]

  Interatomic potentials     =          40.71703522 eV
  Monopole - monopole (real) =        -368.12231566 eV
  Monopole - monopole (recip)=        -167.94146132 eV
  Monopole - monopole (total)=        -536.06377697 eV
  Total lattice energy :
    Primitive unit cell      =        -495.34674175 eV
    Non-primitive unit cell  =       -1486.04022525 eV
  Total lattice energy (in kJmol-1):
    Primitive unit cell      =          -47793.3885 kJ/(mole unit cells)
    Non-primitive unit cell  =         -143380.1655 kJ/(mole unit cells)

  Final asymmetric unit coordinates :

   No.  Atomic        x           y           z         Radius
        Label       (Frac)      (Frac)      (Frac)       (Angs)
     1  Si    c     0.106004    0.333926    0.874910    0.000000
     2  O3    c     0.257495    0.742505    0.000000    0.000000
     3  O3    c     0.142924    0.857076    0.500000    0.000000
     4  O3    c     0.243495    0.243495    0.889243    0.000000
     5  O3    c     0.015818    0.015818    0.323208    0.000000

  Final Cartesian lattice vectors (Angstroms) :

[...]

  Final cell parameters and derivatives :

       a            9.188218 Angstrom     dE/de1(xx)    -0.000082 eV/strain
       b            9.188218 Angstrom     dE/de2(yy)     0.000000 eV/strain
       c            9.188218 Angstrom     dE/de3(zz)     0.000064 eV/strain
       alpha       94.233918 Degrees      dE/de4(yz)     0.000000 eV/strain
       beta        94.233918 Degrees      dE/de5(xz)     0.000000 eV/strain
       gamma       94.233918 Degrees      dE/de6(xy)     0.000000 eV/strain

  Primitive cell volume =           769.017137 Angs**3

  Density of cell =      1.557053 g/cm**3

  Non-primitive lattice parameters :

  a    =    13.465230  b   =    13.465230  c    =    14.692615
  alpha=    90.000000  beta=    90.000000  gamma=   120.000000

  Non-primitive cell volume =          2307.051412 Angs**3

  Final internal derivatives :

   No.  Atomic          a             b             c           Radius
        Label          (eV)          (eV)          (eV)        (eV/Angs)
      1 Si    c       0.000005     -0.001434     -0.000880      0.000000
      2 O3    c      -0.000146      0.000000      0.000000      0.000000
      3 O3    c       0.000304      0.000000      0.000000      0.000000
      4 O3    c       0.000150      0.000000      0.000913      0.000000
      5 O3    c      -0.000714      0.000000     -0.000723      0.000000
  Maximum abs         0.000714      0.001434      0.000913      0.000000

  Born effective charge tensors :

  Atom             x           y             z
   1 Si    x       2.1000      0.0000      0.0000
           y       0.0000      2.1000      0.0000
           z       0.0000      0.0000      2.1000
   2 O3    x      -1.0500      0.0000      0.0000
           y       0.0000     -1.0500      0.0000
           z       0.0000      0.0000     -1.0500
   3 O3    x      -1.0500      0.0000      0.0000
           y       0.0000     -1.0500      0.0000
           z       0.0000      0.0000     -1.0500
   4 O3    x      -1.0500      0.0000      0.0000
           y       0.0000     -1.0500      0.0000
           z       0.0000      0.0000     -1.0500
   5 O3    x      -1.0500      0.0000      0.0000
           y       0.0000     -1.0500      0.0000
           z       0.0000      0.0000     -1.0500

  Elastic Constant Matrix: (Units=GPa)

  Indices      1         2         3         4         5         6
       1    138.1102   72.0715   84.2048    5.8582    0.0000    0.0000
       2     72.0715  138.1102   84.2048   -5.8582    0.0000    0.0000
       3     84.2048   84.2048   94.3588   -0.0000    0.0000    0.0000
       4      5.8582   -5.8582   -0.0000   43.0175    0.0000    0.0000
       5      0.0000    0.0000    0.0000    0.0000   43.0175    5.8582
       6      0.0000    0.0000    0.0000    0.0000    5.8582   33.0194

  Elastic Compliance Matrix: (Units=1/GPa)

[...]

  Mechanical properties :

  Convention :                    Reuss         Voigt         Hill
  Bulk  Modulus (GPa)     =      91.03718      94.61571      92.82645
  Shear Modulus (GPa)     =      23.79114      32.48410      28.13762
  Velocity S-wave (km/s)  =       3.90891       4.56755       4.25101
  Velocity P-wave (km/s)  =       8.87921       9.41183       9.14940
  Compressibility (1/GPa) =    0.01098452
  Stress axis :                     x             y             z
  Youngs Moduli (GPa)     =      62.08584      62.08584      26.88915
  Poissons Ratio (x)      =                    -0.03658       0.40063
  Poissons Ratio (y)      =      -0.03658                     0.40063
  Poissons Ratio (z)      =       0.92503       0.92503

  Piezoelectric Strain Matrix: (Units=C/m**2)

  Indices      1         2         3         4         5         6
       x     0.00000  -0.00000  -0.00000  -0.00000   0.00000   0.00000
       y     0.00000   0.00000   0.00000  -0.00000   0.00000   0.00000
[...]
  119.32612 |******************************                                0.029
  139.21381 |******************************                                0.029
  159.10149 |********************                                          0.019
  178.98918 |********************                                          0.019
  198.87686 |**************************************************            0.048
  218.76455 |**********                                                    0.010
  238.65224 |                                                              0.000
  258.53992 |                                                              0.000
  278.42761 |                                                              0.000
  298.31530 |******************************                                0.029
  318.20298 |                                                              0.000
  338.09067 |********************                                          0.019
  357.97836 |**************************************************            0.048
  377.86604 |**********                                                    0.010
  397.75373 |********************                                          0.019
  417.64142 |******************************                                0.029
  437.52910 |********************                                          0.019
  457.41679 |********************                                          0.019
  477.30448 |**********                                                    0.010
  497.19216 |******************************                                0.029
  517.07985 |********************                                          0.019
  536.96753 |**********                                                    0.010
  556.85522 |******************************                                0.029
  576.74291 |******************************                                0.029
  596.63059 |************************************************************  0.057
  616.51828 |                                                              0.000
  636.40597 |******************************                                0.029
  656.29365 |******************************                                0.029
  676.18134 |******************************                                0.029
  696.06903 |**************************************************            0.048
  715.95671 |******************************                                0.029
  735.84440 |                                                              0.000
  755.73209 |**********                                                    0.010
  775.61977 |**************************************************            0.048
  795.50746 |                                                              0.000
  815.39514 |                                                              0.000
  835.28283 |                                                              0.000
  855.17052 |**********                                                    0.010
  875.05820 |                                                              0.000
  894.94589 |                                                              0.000
  914.83358 |**********                                                    0.010
  934.72126 |****************************************                      0.038
  954.60895 |                                                              0.000
  974.49664 |********************                                          0.019
  994.38432 |******************************                                0.029
 1014.27201 |                                                              0.000
 1034.15970 |******************************                                0.029
 1054.04738 |                                                              0.000
 1073.93507 |                                                              0.000
 1093.82276 |********************                                          0.019
 1113.71044 |                                                              0.000
 1133.59813 |********************                                          0.019
 1153.48581 |********************                                          0.019
 1173.37350 |                                                              0.000
 1193.26119 |****************************************                      0.038
 1213.14887 |                                                              0.000
 1233.03656 |                                                              0.000
 1252.92425 |**********                                                    0.010

  Time to end of optimisation =       0.1178 seconds

*  Output for configuration   2 : quartz                                       *

[...]

  Interatomic potentials     =           7.54498978 eV
  Monopole - monopole (real) =         -60.40963923 eV
  Monopole - monopole (recip)=         -70.58662716 eV
  Monopole - monopole (total)=        -130.99626639 eV
  Total lattice energy       =        -123.45127661 eV
  Total lattice energy       =          -11911.1611 kJ/(mole unit cells)

  Number of variables =        6

  Maximum number of calculations  =          1000
  Maximum Hessian update interval =            10
  Maximum step size               =   1.000000000
  Maximum parameter tolerance     =   0.000010000
  Maximum function  tolerance     =   0.000010000
  Maximum gradient  tolerance     =   0.001000000
  Maximum gradient  component     =   0.010000000

  Symmetry constrained optimisation

  Symmetry used for second derivatives

  Cell parameters to be optimised using strains

  Newton-Raphson optimiser to be used

  BFGS hessian update to be used

  Start of bulk optimisation :

  ** Hessian calculated **

  **** Optimisation achieved ****

  Final energy =    -124.23206910 eV
  Final Gnorm  =       0.00020332

  Components of energy :

  Interatomic potentials     =          10.10001638 eV
  Monopole - monopole (real) =         -64.69310983 eV
  Monopole - monopole (recip)=         -69.63897565 eV
  Monopole - monopole (total)=        -134.33208548 eV
  Total lattice energy       =        -124.23206910 eV
  Total lattice energy       =          -11986.4956 kJ/(mole unit cells)

  Final asymmetric unit coordinates :

   No.  Atomic        x           y           z         Radius
        Label       (Frac)      (Frac)      (Frac)       (Angs)
     1  Si    c     0.500000    0.000000    0.333333    0.000000
     2  O3    c     0.432097    0.216049    0.166667    0.000000

  Final Cartesian lattice vectors (Angstroms) :

[...]

  Final cell parameters and derivatives :

       a            4.984654 Angstrom     dE/de1(xx)    -0.000141 eV/strain
       b            4.984654 Angstrom     dE/de2(yy)     0.000000 eV/strain
       c            5.501658 Angstrom     dE/de3(zz)    -0.000774 eV/strain
       alpha       90.000000 Degrees      dE/de4(yz)     0.000000 eV/strain
       beta        90.000000 Degrees      dE/de5(xz)     0.000000 eV/strain
       gamma      120.000000 Degrees      dE/de6(xy)     0.000000 eV/strain

  Primitive cell volume =           118.384348 Angs**3

  Density of cell =      2.528629 g/cm**3

  Non-primitive cell volume =           118.384348 Angs**3

  Final internal derivatives :

   No.  Atomic          a             b             c           Radius
        Label          (eV)          (eV)          (eV)        (eV/Angs)
      1 Si    c       0.000315      0.000000      0.000000      0.000000
      2 O3    c      -0.000434     -0.000283      0.000708      0.000000
  Maximum abs         0.000434      0.000283      0.000708      0.000000

  Born effective charge tensors :

  Atom             x           y             z
   1 Si    x       2.1000      0.0000      0.0000
           y       0.0000      2.1000      0.0000
           z       0.0000      0.0000      2.1000
   2 O3    x      -1.0500      0.0000      0.0000
           y       0.0000     -1.0500      0.0000
           z       0.0000      0.0000     -1.0500

  Elastic Constant Matrix: (Units=GPa)

[...]

  Elastic Compliance Matrix: (Units=1/GPa)

  Indices      1         2         3         4         5         6
       1    0.004681 -0.000728 -0.002068  0.000000  0.000000  0.000000
       2   -0.000728  0.004681 -0.002068 -0.000000 -0.000000 -0.000000
       3   -0.002068 -0.002068  0.005773  0.000000  0.000000  0.000000
       4    0.000000 -0.000000  0.000000  0.016359 -0.000000  0.000000
       5    0.000000 -0.000000  0.000000 -0.000000  0.016359  0.000000
       6    0.000000 -0.000000  0.000000  0.000000  0.000000  0.010819

  Mechanical properties :

  Convention :                    Reuss         Voigt         Hill
  Bulk  Modulus (GPa)     =     184.93402     185.11079     185.02240
  Shear Modulus (GPa)     =      71.22137      74.05543      72.63840
  Velocity S-wave (km/s)  =       5.30716       5.41173       5.35970
  Velocity P-wave (km/s)  =      10.52097      10.59505      10.55807
  Compressibility (1/GPa) =    0.00540733
  Stress axis :                     x             y             z
  Youngs Moduli (GPa)     =     213.61645     213.61645     173.21105
  Poissons Ratio (x)      =                     0.15557       0.35820
  Poissons Ratio (y)      =       0.15557                     0.35820
  Poissons Ratio (z)      =       0.44176       0.44176

  Piezoelectric Strain Matrix: (Units=C/m**2)

[...]

  Piezoelectric Stress Matrix: (Units=10**-11 C/N)

  Indices      1         2         3         4         5         6
       x     0.00000  -0.00000   0.00000   1.15271   0.00000   0.00000
       y     0.00000  -0.00000  -0.00000   0.00000  -1.15271  -0.00001
       z    -0.00000  -0.00000   0.00000   0.00000   0.00000  -0.00000

  Static dielectric constant tensor :

              x         y         z
       x     1.77843  -0.00000   0.00000
       y    -0.00000   1.77843  -0.00000
       z     0.00000  -0.00000   1.78540

  Static refractive indices :

    1 =    1.33358      2 =    1.33358      3 =    1.33619

  Phonon Calculation :

  Number of k points for this configuration =        1

  K point      2 =   0.000000  0.000000  0.000000  Weight =    1.000

  Frequencies (cm-1) [NB: Negative implies an imaginary mode]:

   -0.00   -0.00   -0.00   88.75  161.42  161.42  336.90  336.90  418.59
  550.20  550.20  557.85  557.85  574.67  634.73  657.06  672.38  672.38
  678.56  696.78  696.78  986.26 1016.25 1016.25 1023.33 1229.53 1229.53

  Phonon properties (per mole of unit cells): Temperature =      0.000 K
  Zero point energy            =        0.961167 eV

  Phonon density of states :

 Frequency (cm-1) Density of States
    0.00000 |                                                              0.000
   19.21140 |                                                              0.000
   38.42279 |                                                              0.000
   57.63419 |                                                              0.000
   76.84558 |********************                                          0.042
   96.05698 |                                                              0.000
  115.26837 |                                                              0.000
  134.47977 |                                                              0.000
  153.69116 |****************************************                      0.083
  172.90256 |                                                              0.000
  192.11396 |                                                              0.000
  211.32535 |                                                              0.000
  230.53675 |                                                              0.000
  249.74814 |                                                              0.000
  268.95954 |                                                              0.000
  288.17093 |                                                              0.000
  307.38233 |                                                              0.000
  326.59373 |****************************************                      0.083
  345.80512 |                                                              0.000
  365.01652 |                                                              0.000
  384.22791 |                                                              0.000
  403.43931 |********************                                          0.042
  422.65070 |                                                              0.000
  441.86210 |                                                              0.000
  461.07349 |                                                              0.000
  480.28489 |                                                              0.000
  499.49629 |                                                              0.000
  518.70768 |                                                              0.000
  537.91908 |****************************************                      0.083
  557.13047 |************************************************************  0.125
  576.34187 |                                                              0.000
  595.55326 |                                                              0.000
  614.76466 |                                                              0.000
  633.97606 |********************                                          0.042
  653.18745 |************************************************************  0.125
  672.39885 |********************                                          0.042
  691.61024 |****************************************                      0.083
  710.82164 |                                                              0.000
  730.03303 |                                                              0.000
  749.24443 |                                                              0.000
  768.45582 |                                                              0.000
  787.66722 |                                                              0.000
  806.87862 |                                                              0.000
  826.09001 |                                                              0.000
  845.30141 |                                                              0.000
  864.51280 |                                                              0.000
  883.72420 |                                                              0.000
  902.93559 |                                                              0.000
  922.14699 |                                                              0.000
  941.35838 |                                                              0.000
  960.56978 |                                                              0.000
  979.78118 |********************                                          0.042
  998.99257 |****************************************                      0.083
 1018.20397 |********************                                          0.042
 1037.41536 |                                                              0.000
 1056.62676 |                                                              0.000
 1075.83815 |                                                              0.000
 1095.04955 |                                                              0.000
 1114.26095 |                                                              0.000
 1133.47234 |                                                              0.000
 1152.68374 |                                                              0.000
 1171.89513 |                                                              0.000
 1191.10653 |                                                              0.000
 1210.31792 |****************************************                      0.083

  Time to end of optimisation =       0.1365 seconds

  Timing analysis for GULP :

  Task / Subroutine                                          Time (Seconds)
  Calculation of reciprocal space energy and derivatives          0.0130
  Calculation of reciprocal space energy using symmetry           0.0122
  Calculation of real space energy and derivatives                0.0372
  Calculation of real space energy using symmetry                 0.0633
  Calculation of molecules and connectivity                       0.0002
  Calculation of phonons                                          0.0182
  Calculation of scattering                                       0.0000
  Symmetry generation of equivalent positions                     0.0010

  Job Finished at 10:25.30 23rd February   2015