     Program CP v.5.1.1 (svn rev. 11353) starts on 12Feb2015 at 11:46:26

   Dumping input parameters

     Waiting for input...
     Reading input from standard input

   Job Title: (H2O)32 Molecule: CP NVT MD with PBE0 at 300 K

     IMPORTANT: XC functional enforced from input :
     Exchange-correlation      = PBE0 ( 6  4  8  4 0 0)
     EXX-fraction              =        0.25
     Any further DFT definition will be discarded
     Please, verify this is what you really want

   Atomic Pseudopotentials Parameters

   Reading pseudopotential for specie #  1 from file :
   ./O_HSCV_PBE-1.0.UPF
   file type is UPF v.1

   Reading pseudopotential for specie #  2 from file :
   ./H_HSCV_PBE-1.0.UPF
   file type is UPF v.1

   Main Simulation Parameters (from input)
   Restart Mode       =       1   restart
   Number of MD Steps =    6000
   Print out every          100 MD Steps
   Reads from unit    =      50
   Writes to unit     =      50
   MD Simulation time step            =       2.00
   Electronic fictitious mass (emass) =     100.00
   emass cut-off                      =      10.00

   Simulation Cell Parameters (from input)
   external pressure       =            0.00 [KBar]
   wmass (calculated)      =        88654.67 [AU]
   ibrav =    1
   alat  =    18.66550000
   a1    =    18.66550000    0.00000000    0.00000000
   a2    =     0.00000000   18.66550000    0.00000000
   a3    =     0.00000000    0.00000000   18.66550000

   b1    =     0.05357478    0.00000000    0.00000000
   b2    =     0.00000000    0.05357478    0.00000000
   b3    =     0.00000000    0.00000000    0.05357478
   omega =    6503.07681696

   Energy Cut-offs
   Ecutwfc =   85.0 Ry,      Ecutrho =  340.0 Ry,      Ecuts =  340.0 Ry
   Gcutwfc =   27.4     ,    Gcutrho =   54.8          Gcuts =   54.8
   NOTA BENE: refg, mmx =   0.050000  8160
   Eigenvalues calculated without the kinetic term contribution
   Orthog. with lagrange multipliers : eps =   0.10E-07,  max =  20
   Electron dynamics with newton equations
   Electron dynamics : the temperature is not controlled

   Electronic states
   Number of Electron =   256, of States =   128
   Occupation numbers :
   2.00 2.00 2.00 2.00 2.00 2.00 2.00 2.00 2.00 2.00
   2.00 2.00 2.00 2.00 2.00 2.00 2.00 2.00 2.00 2.00
   2.00 2.00 2.00 2.00 2.00 2.00 2.00 2.00 2.00 2.00
   2.00 2.00 2.00 2.00 2.00 2.00 2.00 2.00 2.00 2.00
   2.00 2.00 2.00 2.00 2.00 2.00 2.00 2.00 2.00 2.00
   2.00 2.00 2.00 2.00 2.00 2.00 2.00 2.00 2.00 2.00
   2.00 2.00 2.00 2.00 2.00 2.00 2.00 2.00 2.00 2.00
   2.00 2.00 2.00 2.00 2.00 2.00 2.00 2.00 2.00 2.00
   2.00 2.00 2.00 2.00 2.00 2.00 2.00 2.00 2.00 2.00
   2.00 2.00 2.00 2.00 2.00 2.00 2.00 2.00 2.00 2.00
   2.00 2.00 2.00 2.00 2.00 2.00 2.00 2.00 2.00 2.00
   2.00 2.00 2.00 2.00 2.00 2.00 2.00 2.00 2.00 2.00
   2.00 2.00 2.00 2.00 2.00 2.00 2.00 2.00

   Exchange and correlations functionals
     Exchange-correlation      = PBE0 ( 6  4  8  4 0 0)
     EXX-fraction              =        0.25

   Ions Simulation Parameters
   Ions are allowed to move
   Ions dynamics with newton equations
   the temperature is computed for   285 degrees of freedom
   ion dynamics with fricp =  0.0000 and greasp =  1.0000
   Ionic position (from input)
   sorted by specie, and converted to real a.u. coordinates
   Species   1 atoms =   32 mass =     29166.22 (a.u.),        16.00 (amu) rcmax =   0.50 (a.u.)
       16.115500   -21.906700    97.672200
       11.535400   -10.947300    92.713400
       22.991200   -32.624600    80.239500
        7.112770   -28.170900    92.139600
        9.498750   -20.522900    94.523300
       16.614700   -17.437400    86.715700
       -0.250940   -32.047100    93.581100
       17.469200   -24.812800    91.772600
        9.524150   -34.655800    88.823200
        8.646670   -23.127000    80.473000
        3.661560   -29.162100    95.102700
       20.994300   -22.003300    94.398000
       13.729200   -21.798100    86.691800
       15.328800   -31.839300    89.628700
        4.948030   -32.134500    86.140100
       19.106100   -28.885300    88.403200
        5.670910   -20.621000    91.015300
       12.086300   -41.887700    91.442500
       12.404700   -26.504100    97.555400
       10.641400   -15.725800    76.697100
       10.104400   -19.437800    83.896400
       16.785300   -25.509200    85.375900
       17.737300   -33.450200    82.239200
        8.784620   -34.029400    81.163300
       20.335500   -22.655000   102.239000
       14.653500   -29.344700   101.390000
        3.948620   -24.674200    98.203400
        2.253850   -34.988000    89.772700
       24.790200   -21.673500    86.279900
       15.698800   -16.475400    96.577500
       26.331200   -26.456600    86.658800
       10.426000   -30.654900    84.468000
   Species   2 atoms =   64 mass =      3645.78 (a.u.),         2.00 (amu) rcmax =   0.50 (a.u.)
       16.323000   -22.057300    99.444200
       17.805500   -22.052000    96.880900
       11.264800   -12.795200    93.484300
       12.783800   -11.097400    91.358800
       22.615100   -31.097300    78.995100
       21.289700   -33.353500    80.136300
        8.874440   -28.650000    92.204500
        6.738120   -27.809200    90.354400
       11.025500   -21.181700    93.585400
       10.053800   -18.739800    94.771200
       17.089900   -16.687100    85.066300
       18.243400   -17.453800    87.831500
        0.771254   -33.440800    92.850400
       -1.344430   -31.981600    92.151100
       17.976600   -26.316900    90.895600
       15.696700   -24.455100    91.412200
        9.276290   -36.419400    88.523400
        8.937950   -34.298700    90.486600
        8.959260   -22.445900    78.616300
        9.674190   -24.695100    80.326400
        2.242770   -29.899100    94.126800
        4.886080   -28.868000    93.774200
       19.714200   -22.948700    93.611500
       21.652000   -22.956400    95.845600
       12.531000   -20.831800    85.599700
       14.986200   -20.438000    86.854800
       16.764800   -30.766000    89.014600
       15.479200   -33.493700    88.721100
        4.740850   -32.317400    84.322400
        6.658540   -32.636600    86.497100
       20.699400   -29.497400    87.624300
       18.241900   -27.830000    87.234100
        6.948440   -20.535300    92.366100
        4.306240   -21.416800    92.137900
       12.502400   -41.428400    89.550100
       10.920200   -43.186800    91.345800
       13.457900   -25.121800    96.981100
       11.911800   -27.632200    96.098200
        9.866910   -15.303500    78.580700
       12.517400   -15.986700    76.917000
        9.713850   -17.788500    83.136700
        9.478480   -20.537700    82.608900
       18.229500   -24.517200    84.674900
       15.538000   -24.205700    85.935800
       16.676500   -32.031400    82.501200
       16.892700   -34.270500    80.756400
        6.953730   -33.709700    80.944500
        9.148410   -32.575400    82.290700
       21.725900   -22.265600   103.388000
       21.125900   -23.441700   100.747000
       14.257300   -28.577300    99.627300
       15.161200   -27.788000   102.229000
        5.692090   -24.652400    98.808100
        3.351460   -26.335500    97.706200
        3.446270   -36.127900    90.536800
        3.289630   -34.010300    88.610200
       26.192100   -20.735400    85.692000
       24.818900   -21.432700    88.079500
       16.879000   -15.631100    95.272300
       15.867200   -18.318100    96.720300
       25.902300   -24.719700    86.187200
       27.198800   -27.406300    85.341600
       10.923400   -31.391500    86.097500
       12.225900   -30.308000    83.613300
   Ionic position will be re-read from restart file

   All atoms are allowed to move
   Ionic temperature control via nose thermostat

   ion dynamics with nose` temperature control:
   temperature required      =  300.00000 (kelvin)
   NH chain length           =   4
   active degrees of freedom =    285
   time steps per nose osc.  =    344

   nose` frequency(es)       =      60.000     -1.000     -1.000     -1.000

   the requested type of NH chains is     2
   total number of thermostats used    96 1 0
   ionic degrees of freedom for each chain    3   3   3   3   3   3   3   3   3   3   3   3   3   3   3   3   3   3   3   3
   3   3   3   3   3   3   3   3   3   3   3   3   3   3   3   3   3   3   3   3
   3   3   3   3   3   3   3   3   3   3   3   3   3   3   3   3   3   3   3   3
   3   3   3   3   3   3   3   3   3   3   3   3   3   3   3   3   3   3   3   3
   3   3   3   3   3   3   3   3   3   3   3   3   3   3   3   3  96

*** default NH masses are multiplied by atomic masses ***

   nose` mass(es) for chain    1 =    1085.363    365.596    365.596    365.596

[...]

   nose` mass(es) for chain   97 =   14623.843    152.332    152.332    152.332

   atom i (in sorted order) is assigned to this thermostat :
   1   2   3   4   5   6   7   8   9  10  11  12  13  14  15  16  17  18  19  20
  21  22  23  24  25  26  27  28  29  30  31  32  33  34  35  36  37  38  39  40
  41  42  43  44  45  46  47  48  49  50  51  52  53  54  55  56  57  58  59  60
  61  62  63  64  65  66  67  68  69  70  71  72  73  74  75  76  77  78  79  80
  81  82  83  84  85  86  87  88  89  90  91  92  93  94  95  96

   Cell Dynamics Parameters (from STDIN)
   Starting cell generated from CELLDM
   Cell parameters will be re-read from restart file
   Constant VOLUME Molecular dynamics
   cell parameters are not allowed to move

   Verbosity: iverbosity =  0

   Simulation dimensions initialization

   unit vectors of full simulation cell
   in real space:                         in reciprocal space (units 2pi/alat):
   1    18.6655    0.0000    0.0000              1.0000    0.0000    0.0000
   2     0.0000   18.6655    0.0000              0.0000    1.0000    0.0000
   3     0.0000    0.0000   18.6655              0.0000    0.0000    1.0000

   Real Mesh
   .X.   .Y.   .Z.     .X.   .Y.   .Z.     .X.   .Y.   .Z.
   120   120   120     120   120     1       1     1   128
   Array leading dimensions ( nr1x, nr2x, nr3x )   =    120   120   120
   Local number of cell to store the grid ( nrxx ) =      14400
   nr3l =     1    1    1    1    1    1    1    1    1    1
   nr3l =     1    1    1    1    1    1    1    1    1    1
   nr3l =     1    1    1    1    1    1    1    1    1    1
   nr3l =     1    1    1    1    1    1    1    1    1    1
   nr3l =     1    1    1    1    1    1    1    1    1    1
   nr3l =     1    1    1    1    1    1    1    1    1    1
   nr3l =     1    1    1    1    1    1    1    1    1    1
   nr3l =     1    1    1    1    1    1    1    1    1    1
   nr3l =     1    1    1    1    1    1    1    1    1    1
   nr3l =     1    1    1    1    1    1    1    1    1    1
   nr3l =     1    1    1    1    1    1    1    1    1    1
   nr3l =     1    1    1    1    1    1    1    1    1    1
   nr3l =     0    0    0    0    0    0    0    0

   Smooth Real Mesh
   .X.   .Y.   .Z.     .X.   .Y.   .Z.     .X.   .Y.   .Z.
   120   120   120     120   120     1       1     1   128
   Array leading dimensions ( nr1x, nr2x, nr3x )   =    120   120   120
[...]
   H       0.20225496408756E+02    -0.33280634427213E+02     0.81677516923165E+02
   H       0.93369669712603E+01    -0.27982978097425E+02     0.93346383150275E+02
   H       0.78741908213458E+01    -0.27234321328274E+02     0.90927158164711E+02
   H       0.10511694325861E+02    -0.21075837114435E+02     0.93152279665005E+02
   H       0.97841825856631E+01    -0.18520087822853E+02     0.94788701188596E+02
   H       0.16963241685801E+02    -0.16671257948482E+02     0.85003499209018E+02
   H       0.18038091254724E+02    -0.17105493447789E+02     0.87618791435960E+02
   H       0.12245799074065E+01    -0.33636519330844E+02     0.91595849991375E+02
   H      -0.77503651697038E+00    -0.31421198471698E+02     0.92106674692887E+02
   H       0.17882773629059E+02    -0.26926038320214E+02     0.90907141907152E+02
   H       0.15435964526969E+02    -0.25177162271986E+02     0.91408968139880E+02
   H       0.83068495385381E+01    -0.33361750566406E+02     0.91541437884979E+02
   H       0.80085300857155E+01    -0.30653407854569E+02     0.91015926680725E+02
   H       0.92693552515323E+01    -0.22203720230024E+02     0.78135833421908E+02
   H       0.10772869134036E+02    -0.24808194636838E+02     0.78840712825066E+02
   H       0.27533957821782E+01    -0.31088941282273E+02     0.94383317848108E+02
   H       0.49973863659732E+01    -0.29168171583777E+02     0.94651523808189E+02
   H       0.19355604951842E+02    -0.24029484074690E+02     0.92844371930069E+02
   H       0.21304228198995E+02    -0.24093237437222E+02     0.94961042933977E+02
   H       0.12681025995451E+02    -0.21172568408530E+02     0.85285950839018E+02
   H       0.14981074574537E+02    -0.19728779819007E+02     0.86590787357350E+02
   H       0.16230774271997E+02    -0.30332583537032E+02     0.88435248019521E+02
   H       0.14906779101766E+02    -0.32802754640826E+02     0.88790277593850E+02
[...]
   H       0.21884709106470E+02    -0.22975821121942E+02     0.10018256795561E+03
   H       0.13756928732755E+02    -0.28825393426392E+02     0.99483345059852E+02
   H       0.15264269429742E+02    -0.28242010141959E+02     0.10202510995446E+03
   H       0.59714477112846E+01    -0.25552857672132E+02     0.97763906826569E+02
   H       0.37281740375873E+01    -0.27469741159458E+02     0.98482725906804E+02
   H       0.33985367045426E+01    -0.36441707771749E+02     0.90122838795886E+02
   H       0.32579233332476E+01    -0.34057560897451E+02     0.88252087624709E+02
   H       0.26223853141968E+02    -0.21218684474390E+02     0.85666074960650E+02
   H       0.25111986682017E+02    -0.21673692102325E+02     0.88292043655108E+02
   H       0.16593521905526E+02    -0.14905405840125E+02     0.95052252502657E+02
   H       0.16018097646300E+02    -0.17697390746420E+02     0.95838802171464E+02
   H       0.26825190205309E+02    -0.24759066406266E+02     0.87492704649232E+02
   H       0.27876024951255E+02    -0.27525308468032E+02     0.87165663676849E+02
   H       0.10024617969661E+02    -0.31670931180542E+02     0.86809314610111E+02
   H       0.11444632471298E+02    -0.30432172592901E+02     0.84455834508507E+02

   ATOMIC_VELOCITIES
   O      -0.10071225110570E-03    -0.19886889358923E-04    -0.61958773370929E-05
   O       0.10032712354080E-04    -0.16563963988749E-03    -0.79673481637412E-05
   O       0.91115063988210E-04     0.48499390741517E-04    -0.15633070213629E-03
   O      -0.14737948197896E-03     0.10152554347868E-03     0.44250926831028E-03
   O       0.94192008050442E-04     0.45819719465285E-04    -0.29525894643423E-03
   O       0.25434579456909E-03     0.15331792932473E-03    -0.11661250147656E-03
   O       0.32077324901898E-05     0.63165449637155E-04     0.79123850086443E-04
   O      -0.10714992859234E-04     0.11826125839182E-03     0.16804592557437E-03
   O      -0.22931629566264E-03     0.31644535189067E-04     0.86133809331049E-04
   O       0.19775375055779E-03    -0.54249588506730E-04    -0.13419422564984E-03
   O      -0.19755722351391E-03     0.27945615415207E-03    -0.15973666573246E-03
   O       0.27263545044595E-03    -0.19725543886582E-04    -0.55438418616305E-04
   O       0.15512598115657E-03    -0.24375390334041E-03    -0.60511888197351E-04
   O      -0.13331227118800E-04    -0.20095485961656E-03     0.63172307016493E-04
   O      -0.14320768766882E-03     0.31025369737670E-04    -0.49288242716969E-04
   O      -0.18978990183574E-04    -0.31209641247500E-03    -0.10826861960360E-03
   O      -0.30044753526551E-03    -0.69736239400893E-04     0.20703397302732E-03
   O      -0.77298406048426E-04    -0.64661082423030E-04    -0.44636513905735E-04
   O      -0.40083213986456E-03     0.10561881066589E-03     0.84841339579521E-04
   O       0.28179969189960E-03     0.14700305591053E-03     0.29730111750175E-04
   O      -0.64062626410044E-04     0.29956983395834E-03     0.29668468964067E-03
   O      -0.26034508803113E-03    -0.24945231112558E-03    -0.12767634040622E-03
   O      -0.40483871282940E-05     0.36327926771632E-05     0.29104688668248E-04
   O       0.93669655678636E-04     0.41159640837497E-03    -0.24174265351681E-03
   O       0.14319371695772E-03    -0.27678700163363E-03    -0.27905938503174E-03
   O       0.25510418490638E-03    -0.23778080683684E-03    -0.73462428405386E-04
   O       0.56262248630543E-05    -0.16435038677319E-03    -0.39849749851828E-03
   O      -0.11423136529306E-03    -0.79334038805045E-04     0.12085480035210E-03
   O      -0.67148449597917E-04     0.18192681177758E-03     0.60978972135547E-04
   O      -0.16646447875077E-03    -0.26880346305640E-03     0.62797810000457E-04
   O       0.12773441853018E-03     0.45757626146829E-04     0.44559528357116E-03
   O       0.54938796244383E-04     0.44175250700954E-04     0.14365247936100E-04
   H      -0.12453391085836E-03    -0.29808997594066E-03    -0.98116749915453E-03
   H       0.47217625145031E-03    -0.56796899050194E-03     0.81541960415284E-04
   H       0.16866981671985E-03    -0.22303025899048E-03     0.20149866180926E-03
   H       0.93439418985203E-04    -0.55614733918697E-03     0.18007521357433E-04
   H      -0.18520578363971E-03    -0.12213088581475E-03     0.12622653010866E-03
   H       0.11401361769995E-02     0.11931956377929E-02    -0.35847636965812E-03
   H       0.28602275559574E-03     0.32183950284530E-03     0.20319749126684E-03
   H      -0.87442930711861E-03    -0.14878653484594E-03     0.93341350804915E-04
   H       0.24230223718362E-03    -0.31590420536562E-03    -0.33270343754214E-03
   H      -0.25119900412424E-03    -0.20659207927628E-03    -0.86905897233770E-03
   H      -0.82666609778765E-03     0.32531499644808E-03     0.26290218112558E-03
   H       0.14795039094951E-03     0.17254779815146E-03     0.25650551220039E-03
   H       0.74274974710053E-04    -0.57288237682602E-04     0.36634828102874E-03
   H      -0.14148132999967E-04     0.73726849441145E-04    -0.81418623908331E-03
   H       0.13773405998370E-04     0.28373401968261E-03    -0.81910598347130E-04
   H      -0.32025366244474E-03     0.42466239738952E-03     0.90731923863938E-03
   H      -0.18037560413552E-03     0.17349086967175E-03     0.30309083172649E-03
   H      -0.59768083530416E-04    -0.27834871994147E-03    -0.28676753626830E-03
   H      -0.12078522028993E-03    -0.13179076305427E-03     0.50479586423380E-04
   H       0.87650658032692E-03     0.37554266213485E-03     0.11836012266128E-03
   H      -0.22800174447094E-03     0.90612885772984E-03    -0.10161693493797E-03
   H       0.35169251975019E-03    -0.12542577401771E-02     0.53957404630434E-03
   H      -0.14379014224467E-03     0.78271507088666E-03     0.11910547731015E-03
   H       0.12419712911722E-02    -0.61538520524685E-03     0.10594129169766E-02
   H      -0.59358867526725E-04    -0.17992918953466E-03    -0.11600892565630E-03
   H      -0.14793942133619E-03    -0.54028225374330E-03     0.19615397328568E-03
   H      -0.10716332856340E-03    -0.36803114525632E-03     0.19128851044823E-03
   H      -0.29386109060708E-03     0.19255422580754E-03     0.25686013233892E-04
[...]
   H      -0.21940499393237E-03     0.61751018319612E-03    -0.80114776989844E-03
   H      -0.15385470015407E-03    -0.34155546160663E-03     0.15775768440444E-03
   H      -0.10868658762248E-03     0.62373916730817E-04     0.18808358841597E-03
   H       0.50659436501708E-03    -0.31055790977741E-03    -0.17443014979572E-03
   H       0.37748729509089E-03     0.14865354450064E-03    -0.31397896420736E-03
   H      -0.62304895960536E-03     0.11586218294788E-02     0.19226037246696E-03
   H       0.95672510170312E-03    -0.20540713860602E-03    -0.13378638318529E-05
   H       0.83657309911926E-04     0.83869901572430E-03    -0.89700229359518E-04
   H      -0.20966478098615E-03     0.20961279228935E-03     0.16901247804621E-03
   H       0.11085742793356E-02     0.28627160569446E-03    -0.63685069083363E-04
   H       0.24697438201663E-03    -0.54210090267627E-03    -0.46521361224761E-03
   H       0.35655286344944E-03     0.20193439044028E-03    -0.14611790141463E-03
   H      -0.50936928442026E-03    -0.33007125127842E-03     0.64419020033778E-03
   H       0.11705360556770E-03     0.36840964562476E-03     0.32067589563859E-03
   H       0.26614181919197E-03    -0.11815998707215E-04     0.10548625407612E-03

   Forces acting on atoms (au):
   O       0.33495241746859E-01    -0.19816379706625E-01     0.23589892595356E-02
   O       0.12262943025799E-01     0.61775853380590E-02    -0.23125883014219E-01
   O       0.67558299542474E-02     0.96335170139864E-02    -0.30934057837251E-01
   O       0.10930866684480E-01    -0.34795281322360E-02     0.60011912679244E-02
   O       0.11462219344506E-01     0.19886898264217E-01    -0.24863553041700E-02
   O      -0.14696105626648E-01     0.56145448771228E-02    -0.10446763906818E-01
   O      -0.46500189543367E-02    -0.38970312116337E-02     0.32686705090024E-02
   O       0.33576666227476E-01    -0.24180181738301E-01     0.13985949309817E-01
   O       0.80928198632664E-02    -0.29724036346546E-02     0.13207538053796E-01
   O       0.30327840549907E-02    -0.24369787258745E-01     0.14789455808567E-01
   O       0.54921189973421E-02     0.16276947523471E-02    -0.77821427855664E-02
   O       0.37465097158684E-01     0.52240179303411E-02     0.34921235922588E-01
   O       0.77635771269540E-02     0.78053192219287E-02     0.13908415129439E-02
   O      -0.41699242597928E-02     0.18919960416882E-01     0.11534199882228E-01
   O       0.25657627894123E-01     0.13037261506521E-02     0.23645910717798E-02
   O      -0.31988376328046E-01     0.40109879518870E-01    -0.94049402499985E-02
   O       0.45171511002543E-02    -0.30347182045933E-02     0.22060844786649E-01
   O       0.34059967293295E-02     0.86962463311482E-02     0.22426657441683E-01
   O      -0.21967611672579E-01    -0.26252514246486E-01     0.98393202834118E-02
   O       0.33816297735927E-01    -0.52648264576266E-02    -0.15473890552440E-01
   O      -0.10726549441260E-01    -0.46389411296882E-02    -0.17943846012861E-01
   O       0.64854439751045E-02     0.51059020706876E-01    -0.19144885245672E-02
   O       0.18478672261614E-01     0.21219347049660E-01     0.37718844609569E-01
   O      -0.12449323056105E-01    -0.16763924872045E-01    -0.11270827981286E-01
   O       0.84106344877819E-02     0.80812524896603E-02     0.13002283023616E-01
   O      -0.37130669798734E-02    -0.22594173971279E-01     0.17796083898974E-01
   O       0.24957311753514E-01    -0.13062185946353E-01    -0.20742497158901E-01
   O      -0.67601807646034E-02    -0.13610947000143E-01     0.22797303357984E-01
   O       0.42451589072906E-01     0.17255823273460E-01     0.11615439271972E-01
   O      -0.17204262787065E-01     0.11929207275397E-01    -0.12859351397135E-02
   O      -0.28654030194448E-02    -0.16775422960026E-02    -0.65072233507948E-02
   O       0.18379583228369E-01     0.16707615071669E-01    -0.22603516913852E-01
   H      -0.55315459581821E-02     0.10434546316237E-01    -0.54048814760107E-02
   H      -0.26307412066911E-01     0.44912452933165E-02     0.14514431930007E-02
   H       0.99513829695481E-02    -0.74449347619260E-02    -0.20375668696044E-02
   H      -0.18102641592447E-01     0.26723739178246E-02     0.16354983732135E-01
   H      -0.13426931716434E-01    -0.35569213853668E-02     0.20305807886302E-01
   H       0.28804679024711E-02    -0.42972181090963E-02    -0.29646497349775E-02
   H      -0.10047693474325E-01     0.19861503039800E-03    -0.32277335920046E-02
   H      -0.48399050962919E-03     0.10627308131717E-01     0.26152618241731E-02
   H      -0.13751376209078E-02     0.59386355180735E-02     0.77058833354572E-02
   H      -0.65577207714149E-02    -0.19336739510745E-01    -0.48586803723394E-02
   H      -0.10525984572584E-01    -0.45528253265715E-02    -0.20442646215320E-02
   H       0.24556704765870E-01    -0.37667761365483E-02     0.18812587604840E-01
   H      -0.78220719174885E-02     0.54537079627492E-02    -0.40030700932416E-02
   H       0.53316875795246E-02    -0.75803594677717E-03    -0.60258202432005E-02
   H      -0.14381218450117E-01     0.35467557689510E-02    -0.34662002305576E-02
   H      -0.12912903648940E-01     0.16387072498226E-01    -0.16866605495801E-01
   H      -0.96856545035452E-03    -0.74687101645666E-02    -0.88058279812789E-02
   H      -0.70108265541169E-02     0.24193325507720E-02    -0.52884396370393E-02
   H       0.54993377878776E-02    -0.12896616163599E-02    -0.18351021044438E-01
   H      -0.12079920314445E-01     0.18948246725528E-01    -0.19297842818147E-02
   H      -0.32438465662481E-03     0.63565309148763E-02     0.10735716322757E-01
   H      -0.25184412320310E-02    -0.87079262451869E-02     0.60326177062037E-02
   H      -0.24980557992113E-01    -0.15876259779005E-01    -0.14211172267027E-01
   H      -0.11550232018024E-01     0.15461937678961E-01    -0.79092979453463E-02
   H       0.21064864989739E-03     0.13506632418130E-02    -0.15635605389551E-03
   H      -0.53982639599737E-02    -0.10534557004905E-01    -0.32721712996017E-02
   H       0.47340875328032E-02     0.77144920726377E-02    -0.88625491386916E-03
   H       0.14707909249301E-02    -0.27555644199008E-01    -0.10240266271122E-01
[...]
   H      -0.64612348664063E-02    -0.44225753473084E-02     0.22824491078153E-02
   H       0.63712695846800E-02     0.14519180276134E-01    -0.52020926358747E-02
   H      -0.37022981195101E-03     0.11996604012606E-01    -0.90730375454363E-02
   H      -0.26076988223776E-01    -0.92613230746387E-03     0.19376143425611E-01
   H       0.62791461752756E-02     0.19554319729965E-01    -0.49101772404003E-02
   H      -0.98807693153811E-03     0.22626159836910E-02    -0.99853590046209E-02
   H       0.56291789594954E-02     0.44662498525699E-02    -0.10481638585864E-01
   H      -0.22904891229597E-01    -0.18566569201890E-01    -0.16804594600113E-02
   H      -0.23100193972012E-01     0.10461036893448E-02    -0.11903534249769E-01
   H       0.93302462608595E-02    -0.17819321121908E-02    -0.67233824280273E-02
   H       0.45808116413323E-02    -0.20164626550041E-01    -0.20805406573146E-02
   H       0.29510135180805E-03    -0.78336568194683E-02    -0.11491749638266E-02
   H       0.82178691441343E-03     0.70665542155548E-02    -0.31504397677595E-03
   H       0.85427107129248E-02    -0.53341572208050E-02     0.14496253479174E-01
   H      -0.16835043787973E-01    -0.10045178101330E-01     0.86428954398974E-02

   Partial temperatures (for each ionic specie)
   Species  Temp (K)   Mean Square Displacement (a.u.)
        1   2.92E+02     1.5286E+00
        2   2.77E+02     1.7289E+00
   6165    0.003327967719921    0.0  285.32     -31.524711686668    -550.145115678997    -550.145115678997    -550.016358879888    -550.122366456449   0.0000   0.0000  -0.0002   1.9029
   MLWF step    5  Convergence =  1.566E-07  Generated

   writing restart file: ./water_50.save
   restart file written in    2.175 sec.

   Averaged Physical Quantities
                      accumulated      this run
   ekinc         :        1.36336       0.00365 (AU)
   ekin          :      405.20345     404.69194 (AU)
   epot          :     -985.49248    -985.52585 (AU)
   total energy  :     -549.01748    -550.15472 (AU)
   temperature   :      296.74164     304.90203 (K )
   enthalpy      :     -549.01748    -550.15472 (AU)
   econs         :     -548.88357    -550.01713 (AU)
   pressure      :        0.00000       0.00000 (Gpa)
   volume        :     6503.07682    6503.07682 (AU)

     Small boxes:

     Low-level routines:

   This run was terminated on:  11:17:55  13Feb2015

   JOB DONE.
Application 2335499 resources: utime ~10664118s, stime ~153026s, Rss ~494480, inblocks ~1207181796, outblocks ~56581321